32	0

0	6	2	3	6	5	7	8
3	2	4	11
3	2	4	11
10	2	9	10
9	3	9	10	11
4	3	9	10	11
5	3	9	10	11
6	3	9	10	11
4	3	12	13	14
2	3	12	13	14
8	3	12	13	14
9	1	15
9	1	15
4	1	15
2	2	16	17
7	3	18	19	20
8	3	21	22	25
7	2	23	25
8	2	23	25
6	3	21	22	25
3	1	23
7	1	24
6	1	24
2	1	26
10	2	27	28
1	2	27	28
10	1	32
1	1	29
6	1	30
1	1	31
10	1	32
0	0
